Route #1: 75 93
Route #2: 38 47 26 48 96 64 34
Route #3: 39 10 18
Route #4: 57 72 36 29 43 45 2 7
Route #5: 31 46 35
Route #6: 69 16 55 76
Route #7: 27 97 19
Route #8: 52 91 50
Route #9: 28 42 78 65 25
Route #10: 5 12 58
Route #11: 81 51 83
Route #12: 3 77 63
Route #13: 86 9 92
Route #14: 4 13 74
Route #15: 71 62 99 98 89
Route #16: 23 61 100
Route #17: 14 49 6 37 87
Route #18: 32 33 53 73 95 24
Route #19: 30 85 11 79
Route #20: 40 88 67 44
Route #21: 8 17
Route #22: 54 70 1
Route #23: 82 60 59
Route #24: 20 41 22 15
Route #25: 66 84 90 68
Route #26: 21 56 94 80
Cost 27591.0000
Time 16.0006